5974 5174 5059 4963 4723 4443 4372 4234 4116 3937 3884 3729 3674 3509 3465 3434 3341 3282 3146 3115 3078 2983 2937 2855 2768 2728 2630 2586 2531 2479 2427 2361 2322 2269 2209 2182 2132 2088 2056 2024 1999 1986 1953 1944 1921 1906 1888 1875 1860 1846 1833 1813 1806 1793 1782 1763 1752 1739 1735 1712 1707 1701 1688 1667 1667 1652 1651 1645 1634 1634 1625 1624 1621 1614 1610 1605 1599 1597 1593 1584 1577 1573 1556 1546 1538 1526 1516 1504 1492 1492 1492 1487 1484 1481 1481 1473 1467 1467 1463 1456 1456 1449 1438 1430 1430 1422 1414 1414 1414 1414 1414 1414 1414 1414 1414 1414 1414 1414 1414 1414 1414 1414 1414 1414 1414 1414 1414 1414 1414 1414 1414 1414 1414 1414 1414 1414 1414 1414 1414 1414 1414 1414 1414 1414 1414 1414 1414 1414 1414 1414 1414 1414 1414 1414 1414 1414 1414 1414 1414 1414 1414 1414 1414 1414 1414 1414 1414 1414 1414 1414 1414 1414 1414 1414 1414 1414 1414 1414 1414 1414 1414 1414 1414 1414 1414 1414 1414 1414 1414 1414 1414 1414 1414 1414 1414 1414 1414 1414 1414 1414 1414 1414 1414 1414 1414 1414 1414 1414 1414 1414 1414 1414 1414 1414 1414 1414 1414 1414 1414 1414 1414 1414 1414 1414 1414 1414 1414 1414 1414 1414 1414 1414 1414 1414 1414 1414 1414 1414 1414 1414 1414 1414 1414 1414 1414 1414 1414 1414 1414 1414 1414 1414 1414 1414 1414 1414 1414 1411 1411 1411 1408 1408 1408 1408 1408 1408 1408 1408 1408 1408 1408 1408 1408 1408 1408 1408 1408 1408 1408 1408 1408 1408 1408 1408 1408 1408 1408 1408 1408 1408 1408 1408 1408 1408 1408 1408 1408 1408 1408 1408 1408 1408 1408 1408 1408 1408 1408 1408 1408 1408 1408 1408 1408 1408 1408 1408 1408 1408 1408 1408 1408 1408 1408 1408 1408 1408 1408 1408 1408 1408 1408 1408 1408 1408 1408 1408 1408 1408 1408 1408 1408 1408 1408 1408 1408 1408 1408 1408 1408 1408 1408 1408 1408 1408 1408 1408 1408 1408 1408 1408 1408 1408 1408 1408 1408 1408 1408 1408 1408 1408 1408 1408 1408 1408 1408 1408 1408 1408 1408 1408 1408 1408 1408 1408 1408 1408 1408 1408 1408 1408 1408 1408 1408 1408 1408 1408 1408 1408 1408 1408 1408 1408 1408 1408 1408 1408 1408 1408 1408 1408 1408 1408 1408 1408 1408 1408 1408 1408 1408 1408 1408 1408 1408 1408 1408 1408 1408 1408 1408 1408 1408 1408 1408 1408 1408 1408 1408 1408 1408 1408 1408 1408 1408 1408 1408 1408 1408 1408 1408 1408 1408 1408 1408 1408 1408 1408 1408 1408 1408 1408 1408 1408 1408 1408 1408 1408 1408 1408 1408 1408 1408 1408 1408 1408 1408 1408 1408 1408 1408 1408 1408 1408 1408 1408 1408 1408 1408 1408 1408 1408 1408 1408 1408 1408 1408 1408 1408 1408 1408 1408 1408 1408 1408 1408 1408 1408 1408 1408 1408 1408 1408 1408 1408 1408 1408 1408 1408 1408 1408 1408 1408 1408 1408 1408 1408 1408 1408 1408 1408 1408 1408 1408 1408 1408 1408 1408 1408 1408 1408 1408 1408 1408 1408 1408 1408 1408 1408 1408 1408 1408 1408 1408 1408 1408 1408 1408 1408 1408 1408 1408 1408 1408 1408 1408 1408 1408 1408 1408 1408 1408 1408 1408 1408 1408 1408 1408 1408 1408 1408 1408 1408 1408 1408 1408 1408 1408 1408 1408 1408 1408 1408 1408 1408 1408 1408 1408 1408 1408 1408 1408 1408 1408 1408 1408 1408 1408 1408 1408 1408 1408 1408 1408 1408 1408 1408 1408 1408 1408 1408 1408 1408 1408 1408 1408 1408 1408 1408 1408 1408 1408 1408 1408 1408 1408 1408 1408 1408 1408 1408 1408 1408 1408 1408 1408 1408 1408 1408 1408 1408 1408 1408 1408 1408 1408 1408 1408 1408 1408 1408 1408 1408 1408 1408 1408 1408 1408 1408 1408 1408 1408 1408 1408 1408 1408 1408 1408 1408 1408 1408 1408 1408 1408 1408 1408 1408 1408 1408 1408 1408 1408 1408 1408 1408 1408 1408 1408 1408 1408 1408 1408 1408 1408 1408 1408 1408 1408 1408 1408 1408 1408 1408 1408 1408 1408 1408 1408 1408 1408 1408 1408 1408 1408 1408 1408 1408 1408 1408 1408 1408 1408 1408 1408 1408 1408 1408 1408 1408 1408 1408 1408 1408 1408 1408 1408 1408 1408 1408 1408 1408 1408 1408 1408 1408 1408 1408 1408 1408 1408 1408 1408 1408 1408 1408 1408 1408 1408 1408 1408 1408 1408 1408 1408 1408 1408 1408 1408 1408 1408 1408 1408 1408 1408 1408 1408 1408 1408 1408 1408 1408 1408 1408 1408 1408 1408 1408 1408 1408 1408 1408 1408 1408 1408 1408 1408 1408 1408 1408 1408 1408 1408 1408 1408 1408 1408 1408 1408 1408 1408 1408 1408 1408 1408 1408 1408 1408 1408 1408 1408 1408 1408 1408 1408 1408 1408 1408 1408 1408 1408 1408 1408 1408 1408 1408 1408 1408 1408 1408 1408 1408 1408 1408 1408 1408 1408 1408 1408 1408 1408 1408 1408 1408 1408 1408 1408 1408 1408 1408 1408 1408 1408 1408 1408 1408 1408 1408 1408 1408 1408 1408 1408 1408 1408 1408 1408 1408 1408 1408 1408 1408 1408 1408 1408 1408 1408 1408 1408 1408 1408 1408 1408 1408 1408 1408 1408 1408 1408 1408 1408 1408 1408 1408 1408 1408 1408 1408 1408 1408 1408 1408 1408 1408 1408 1408 1408 1408 1408 1408 1408 1408 1408 1408 1408 1408 1408 1408 1408 1408 1408 1408 1408 1408 1408 1408 1408 1408 1408 1408 1408 1408 1408 1408 1408 1408 1408 1408 1408 1408 1408 1408 1408 1408 1408 1408 1408 1408 1408 1408 1408 1408 1408 1408 1408 1408 1408 1408 1408 1408 1408 1408 1408 1408 1408 1408 1408 1408 1408 1408 1408 1408 1408 1408 1408 1408 1408 1408 1408 1408 1408 1408 1408 1408 1408 1408 1408 1408 1408 1408 1408 1408 1408 1408 1408 1408 1408 1408 1408 1408 1408 1408 1408 1408 1408 1408 1408 1408 1408 1408 1408 1408 1408 1408 1408 1408 1408 1408 1408 1408 1408 1408 1408 1408 1408 1408 1408 1408 1408 1408 1408 1408 1408 1408 1408 1408 1408 1408 1408 1408 1408 1408 1408 1408 1408 1408 1408 1408 1408 1408 1408 1408 1408 1408 1408 1408 1408 1408 1408 1408 1408 1408 1408 1408 1408 1408 1408 1408 1408 1408 1408 1408 1408 1408 1408 1408 1408 1408 1408 1408 1408 1408 1408 1408 1408 1408 1408 1408 1408 1408 1408 1408 1408 1408 1408 1408 1408 1408 1408 1408 1408 1408 1408 1408 1408 1408 1408 1408 1408 1408 1408 1408 1408 1408 1408 1408 1408 1408 1408 1408 1408 1408 1408 1408 1408 1408 1408 1408 1408 1408 1408 1408 1408 1408 1408 1408 1408 1408 1408 1408 1408 1408 1408 1408 1408 1408 1408 1408 1408 1408 1408 1408 1408 1408 1408 1408 1408 1408 1408 1408 1408 1408 1408 1408 1408 1408 1408 1408 1408 1408 1408 1408 1408 1408 1408 1408 1408 1408 1408 1408 1408 1408 1408 1408 1408 1408 1408 1408 1408 1408 1408 1408 1408 1408 1408 1408 1408 1408 1408 1408 1408 1408 1408 1408 1408 1408 1408 1408 1408 1408 1408 1408 1408 1408 1408 1408 1408 1408 1408 1408 1408 1408 1408 1408 1408 1408 1408 1408 1408 1408 1408 1408 1408 1408 1408 1408 1408 1408 1408 1408 1408 1408 1408 1408 1408 1408 1408 1408 1408 1408 1408 1408 1408 1408 1408 1408 1408 1408 1408 1408 1408 1408 1408 1408 1408 1408 1408 1408 1408 1408 1408 1408 1408 1408 1408 1408 1408 1408 1408 1408 1408 1408 1408 1408 1408 1408 1408 1408 1408 1408 1408 1408 1408 1408 1408 1408 1408 1408 1408 1408 1408 1408 1408 1408 1408 1408 1408 1408 1408 1408 1408 1408 1408 1408 1408 1408 1408 1408 1408 1408 1408 1408 1408 1408 1408 1408 1408 1408 1408 1408 1408 1408 1408 1408 1408 1408 1408 1408 1408 1408 1408 1408 1408 1408 1408 1408 1408 1408 1408 1408 1408 1408 1408 1408 1408 1408 1408 1408 1408 1408 1408 1408 1408 1408 1408 1408 1408 1408 1408 1408 1408 1408 1408 1408 1408 1408 1408 1408 1408 1408 1408 1408 1408 1408 1408 1408 1408 1408 1408 1408 1408 1408 1408 1408 1408 1408 1408 1408 1408 1408 1408 1408 1408 1408 1408 1408 1408 1408 1408 1408 1408 1408 1408 1408 1408 1408 1408 1408 1408 1408 1408 1408 1408 1408 1408 1408 1408 1408 1408 1408 1408 1408 1408 1408 1408 1408 1408 1408 1408 1408 1408 1408 1408 1408 1408 1408 1408 1408 1408 1408 1408 1408 1408 1408 1408 1408 1408 1408 1408 1408 1408 1408 1408 1408 1408 1408 1408 1408 1408 1408 1408 1408 1408 1408 1408 1408 1408 1408 1408 1408 1408 1408 1408 
6934 6358 5943 5595 5303 5067 4886 4660 4460 4334 4192 4052 3923 3819 3719 3632 3535 3459 3394 3319 3240 3167 3105 3035 2952 2867 2792 2715 2641 2582 2531 2481 2422 2363 2316 2275 2233 2185 2136 2096 2054 2021 2000 1989 1970 1943 1924 1906 1889 1878 1862 1847 1829 1815 1803 1790 1778 1762 1751 1742 1731 1721 1709 1702 1692 1677 1667 1662 1651 1646 1642 1634 1632 1624 1623 1614 1610 1608 1603 1597 1593 1588 1579 1571 1556 1545 1541 1531 1515 1504 1493 1491 1491 1491 1486 1483 1477 1472 1472 1466 1466 1465 1455 1455 1445 1434 1429 1429 1426 1419 1414 1414 1414 1414 1414 1414 1414 1414 1414 1414 1414 1414 1414 1414 1414 1414 1414 1414 1414 1414 1414 1414 1414 1414 1414 1414 1414 1414 1414 1414 1414 1414 1414 1414 1414 1414 1414 1414 1414 1414 1414 1414 1414 1414 1414 1414 1414 1414 1414 1414 1414 1414 1414 1414 1414 1414 1414 1414 1414 1414 1414 1414 1414 1414 1414 1414 1414 1414 1414 1414 1414 1414 1414 1414 1414 1414 1414 1414 1414 1414 1414 1414 1414 1414 1414 1414 1414 1414 1414 1414 1414 1414 1414 1414 1414 1414 1414 1414 1414 1414 1414 1414 1414 1414 1414 1414 1414 1414 1414 1414 1414 1414 1414 1414 1414 1414 1414 1414 1414 1414 1414 1414 1414 1414 1414 1414 1414 1414 1414 1414 1414 1414 1414 1414 1414 1414 1414 1414 1414 1414 1414 1414 1414 1414 1414 1414 1414 1413 1413 1413 1411 1410 1410 1408 1408 1408 1408 1408 1408 1408 1408 1408 1408 1408 1408 1408 1408 1408 1408 1408 1408 1408 1408 1408 1408 1408 1408 1408 1408 1408 1408 1408 1408 1408 1408 1408 1408 1408 1408 1408 1408 1408 1408 1408 1408 1408 1408 1408 1408 1408 1408 1408 1408 1408 1408 1408 1408 1408 1408 1408 1408 1408 1408 1408 1408 1408 1408 1408 1408 1408 1408 1408 1408 1408 1408 1408 1408 1408 1408 1408 1408 1408 1408 1408 1408 1408 1408 1408 1408 1408 1408 1408 1408 1408 1408 1408 1408 1408 1408 1408 1408 1408 1408 1408 1408 1408 1408 1408 1408 1408 1408 1408 1408 1408 1408 1408 1408 1408 1408 1408 1408 1408 1408 1408 1408 1408 1408 1408 1408 1408 1408 1408 1408 1408 1408 1408 1408 1408 1408 1408 1408 1408 1408 1408 1408 1408 1408 1408 1408 1408 1408 1408 1408 1408 1408 1408 1408 1408 1408 1408 1408 1408 1408 1408 1408 1408 1408 1408 1408 1408 1408 1408 1408 1408 1408 1408 1408 1408 1408 1408 1408 1408 1408 1408 1408 1408 1408 1408 1408 1408 1408 1408 1408 1408 1408 1408 1408 1408 1408 1408 1408 1408 1408 1408 1408 1408 1408 1408 1408 1408 1408 1408 1408 1408 1408 1408 1408 1408 1408 1408 1408 1408 1408 1408 1408 1408 1408 1408 1408 1408 1408 1408 1408 1408 1408 1408 1408 1408 1408 1408 1408 1408 1408 1408 1408 1408 1408 1408 1408 1408 1408 1408 1408 1408 1408 1408 1408 1408 1408 1408 1408 1408 1408 1408 1408 1408 1408 1408 1408 1408 1408 1408 1408 1408 1408 1408 1408 1408 1408 1408 1408 1408 1408 1408 1408 1408 1408 1408 1408 1408 1408 1408 1408 1408 1408 1408 1408 1408 1408 1408 1408 1408 1408 1408 1408 1408 1408 1408 1408 1408 1408 1408 1408 1408 1408 1408 1408 1408 1408 1408 1408 1408 1408 1408 1408 1408 1408 1408 1408 1408 1408 1408 1408 1408 1408 1408 1408 1408 1408 1408 1408 1408 1408 1408 1408 1408 1408 1408 1408 1408 1408 1408 1408 1408 1408 1408 1408 1408 1408 1408 1408 1408 1408 1408 1408 1408 1408 1408 1408 1408 1408 1408 1408 1408 1408 1408 1408 1408 1408 1408 1408 1408 1408 1408 1408 1408 1408 1408 1408 1408 1408 1408 1408 1408 1408 1408 1408 1408 1408 1408 1408 1408 1408 1408 1408 1408 1408 1408 1408 1408 1408 1408 1408 1408 1408 1408 1408 1408 1408 1408 1408 1408 1408 1408 1408 1408 1408 1408 1408 1408 1408 1408 1408 1408 1408 1408 1408 1408 1408 1408 1408 1408 1408 1408 1408 1408 1408 1408 1408 1408 1408 1408 1408 1408 1408 1408 1408 1408 1408 1408 1408 1408 1408 1408 1408 1408 1408 1408 1408 1408 1408 1408 1408 1408 1408 1408 1408 1408 1408 1408 1408 1408 1408 1408 1408 1408 1408 1408 1408 1408 1408 1408 1408 1408 1408 1408 1408 1408 1408 1408 1408 1408 1408 1408 1408 1408 1408 1408 1408 1408 1408 1408 1408 1408 1408 1408 1408 1408 1408 1408 1408 1408 1408 1408 1408 1408 1408 1408 1408 1408 1408 1408 1408 1408 1408 1408 1408 1408 1408 1408 1408 1408 1408 1408 1408 1408 1408 1408 1408 1408 1408 1408 1408 1408 1408 1408 1408 1408 1408 1408 1408 1408 1408 1408 1408 1408 1408 1408 1408 1408 1408 1408 1408 1408 1408 1408 1408 1408 1408 1408 1408 1408 1408 1408 1408 1408 1408 1408 1408 1408 1408 1408 1408 1408 1408 1408 1408 1408 1408 1408 1408 1408 1408 1408 1408 1408 1408 1408 1408 1408 1408 1408 1408 1408 1408 1408 1408 1408 1408 1408 1408 1408 1408 1408 1408 1408 1408 1408 1408 1408 1408 1408 1408 1408 1408 1408 1408 1408 1408 1408 1408 1408 1408 1408 1408 1408 1408 1408 1408 1408 1408 1408 1408 1408 1408 1408 1408 1408 1408 1408 1408 1408 1408 1408 1408 1408 1408 1408 1408 1408 1408 1408 1408 1408 1408 1408 1408 1408 1408 1408 1408 1408 1408 1408 1408 1408 1408 1408 1408 1408 1408 1408 1408 1408 1408 1408 1408 1408 1408 1408 1408 1408 1408 1408 1408 1408 1408 1408 1408 1408 1408 1408 1408 1408 1408 1408 1408 1408 1408 1408 1408 1408 1408 1408 1408 1408 1408 1408 1408 1408 1408 1408 1408 1408 1408 1408 1408 1408 1408 1408 1408 1408 1408 1408 1408 1408 1408 1408 1408 1408 1408 1408 1408 1408 1408 1408 1408 1408 1408 1408 1408 1408 1408 1408 1408 1408 1408 1408 1408 1408 1408 1408 1408 1408 1408 1408 1408 1408 1408 1408 1408 1408 1408 1408 1408 1408 1408 1408 1408 1408 1408 1408 1408 1408 1408 1408 1408 1408 1408 1408 1408 1408 1408 1408 1408 1408 1408 1408 1408 1408 1408 1408 1408 1408 1408 1408 1408 1408 1408 1408 1408 1408 1408 1408 1408 1408 1408 1408 1408 1408 1408 1408 1408 1408 1408 1408 1408 1408 1408 1408 1408 1408 1408 1408 1408 1408 1408 1408 1408 1408 1408 1408 1408 1408 1408 1408 1408 1408 1408 1408 1408 1408 1408 1408 1408 1408 1408 1408 1408 1408 1408 1408 1408 1408 1408 1408 1408 1408 1408 1408 1408 1408 1408 1408 1408 1408 1408 1408 1408 1408 1408 1408 1408 1408 1408 1408 1408 1408 1408 1408 1408 1408 1408 1408 1408 1408 1408 1408 1408 1408 1408 1408 1408 1408 1408 1408 1408 1408 1408 1408 1408 1408 1408 1408 1408 1408 1408 1408 1408 1408 1408 1408 1408 1408 1408 1408 1408 1408 1408 1408 1408 1408 1408 1408 1408 1408 1408 1408 1408 1408 1408 1408 1408 1408 1408 1408 1408 1408 1408 1408 1408 1408 1408 1408 1408 1408 1408 1408 1408 1408 1408 1408 1408 1408 1408 1408 1408 1408 1408 1408 1408 1408 1408 1408 1408 1408 1408 1408 1408 1408 1408 1408 1408 1408 1408 1408 1408 1408 1408 1408 1408 1408 1408 1408 1408 1408 1408 1408 1408 1408 1408 1408 1408 1408 1408 1408 1408 1408 1408 1408 1408 1408 1408 1408 1408 1408 1408 1408 1408 1408 1408 1408 1408 1408 1408 1408 1408 1408 1408 1408 1408 1408 1408 1408 1408 1408 1408 1408 1408 1408 1408 1408 1408 1408 1408 1408 1408 1408 1408 1408 1408 1408 1408 1408 1408 1408 1408 1408 1408 1408 1408 1408 1408 1408 1408 1408 1408 1408 1408 1408 1408 1408 1408 1408 1408 1408 1408 1408 1408 1408 1408 1408 1408 1408 1408 1408 1408 1408 1408 1408 1408 1408 1408 1408 1408 1408 1408 1408 1408 1408 1408 1408 1408 1408 1408 1408 1408 1408 1408 1408 1408 1408 1408 1408 1408 1408 1408 1408 1408 1408 1408 1408 1408 1408 1408 1408 1408 1408 1408 1408 1408 1408 1408 1408 1408 1408 1408 1408 1408 1408 1408 1408 1408 1408 1408 1408 1408 1408 1408 1408 1408 1408 1408 1408 1408 1408 1408 1408 1408 1408 1408 1408 1408 1408 1408 1408 1408 1408 1408 1408 1408 1408 1408 1408 1408 1408 1408 1408 1408 1408 1408 1408 1408 1408 1408 1408 1408 1408 1408 1408 1408 1408 1408 1408 1408 1408 1408 1408 1408 1408 1408 1408 1408 1408 1408 1408 1408 1408 1408 1408 1408 1408 1408 1408 1408 1408 1408 1408 1408 1408 1408 1408 1408 1408 1408 1408 1408 1408 1408 1408 